min: X + Y;

x_1 <= 5;
x_2 <= 5;
x_3 <= 3;
x_4 <= 15;
x_5 <= 21;
x_1 >= 1;
x_2 >= 1;
x_3 >= 1;
x_4 >= 2;
x_5 >= 5;
-7.2667 x_1 + 0.3724 x_2 + 29.1759 x_3 - 3.2784 x_4 + 1.8231 x_5 - 41.776 <= X;
7.2667 x_1 - 0.3724 x_2 - 29.1759 x_3 + 3.2784 x_4 - 1.8231 x_5 + 41.776 <= X;
-5.477 x_1 + 4.640 x_2 + 4.290 x_3 + 0.343 <= Y;
5.477 x_1 - 4.640 x_2 - 4.290 x_3 - 0.343 <= Y;






 
